p cnf 78 288
3 -1 0
3 2 0
1 -2 -3 0
4 -5 -6 0
-4 5 -6 0
4 5 6 0
-4 -5 6 0
-7 -6 0
-7 2 0
6 -2 7 0
-5 -8 -9 0
5 8 -9 0
-5 8 9 0
5 -8 9 0
11 -4 0
11 -10 0
4 10 -11 0
12 -11 0
12 8 0
11 -8 -12 0
-13 -9 0
-13 12 0
9 -12 13 0
-12 14 -15 0
12 -14 -15 0
-12 -14 15 0
12 14 15 0
-16 13 0
-16 -15 0
-13 15 16 0
7 -16 -17 0
-7 16 -17 0
7 16 17 0
-7 -16 17 0
-18 17 0
-18 9 0
-17 -9 18 0
19 -2 0
19 -15 0
2 15 -19 0
21 -9 0
21 -20 0
9 20 -21 0
22 19 0
22 21 0
-19 -21 -22 0
-18 -22 -23 0
18 22 -23 0
-18 22 23 0
18 -22 23 0
24 15 0
24 -15 0
25 26 0
-25 26 0
-27 -24 0
-27 26 0
24 -26 27 0
28 -2 0
28 14 0
2 -14 -28 0
20 28 -29 0
-20 -28 -29 0
20 -28 29 0
-20 28 29 0
-30 -20 0
-30 -29 0
20 29 30 0
32 -31 0
32 6 0
31 -6 -32 0
-19 -28 -33 0
19 28 -33 0
-19 28 33 0
19 -28 33 0
34 -32 0
34 -33 0
32 33 -34 0
35 -15 0
35 13 0
15 -13 -35 0
-36 34 0
-36 -35 0
-34 35 36 0
37 10 0
37 -20 0
-10 20 -37 0
-38 -36 0
-38 -37 0
36 37 38 0
-39 -30 0
-39 -38 0
30 38 39 0
40 16 0
40 -7 0
-16 7 -40 0
-41 -19 0
-41 10 0
19 -10 41 0
-42 40 0
-42 41 0
-40 -41 42 0
-39 -42 -43 0
39 42 -43 0
-39 42 43 0
39 -42 43 0
-44 27 0
-44 43 0
-27 -43 44 0
-23 44 -45 0
23 -44 -45 0
-23 -44 45 0
23 44 45 0
46 3 0
46 -45 0
-3 45 -46 0
-47 -31 0
-47 28 0
31 -28 47 0
-48 -20 0
-48 -47 0
20 47 48 0
-49 -13 0
-49 16 0
13 -16 49 0
11 -13 -50 0
-11 13 -50 0
11 13 50 0
-11 -13 50 0
50 -5 -51 0
-50 5 -51 0
50 5 51 0
-50 -5 51 0
-52 4 0
-52 5 0
-4 -5 52 0
53 -51 0
53 52 0
51 -52 -53 0
31 -33 -54 0
-31 33 -54 0
31 33 54 0
-31 -33 54 0
-15 -54 -55 0
15 54 -55 0
-15 54 55 0
15 -54 55 0
-56 53 0
-56 55 0
-53 -55 56 0
-57 -5 0
-57 11 0
5 -11 57 0
-58 -57 0
-58 33 0
57 -33 58 0
-58 6 -59 0
58 -6 -59 0
-58 -6 59 0
58 6 59 0
60 56 0
60 -59 0
-56 59 -60 0
-61 60 0
-61 20 0
-60 -20 61 0
62 -49 0
62 -61 0
49 61 -62 0
48 62 -63 0
-48 -62 -63 0
48 -62 63 0
-48 62 63 0
64 31 0
64 -9 0
-31 9 -64 0
-65 16 0
-65 -21 0
-16 21 65 0
66 64 0
66 -65 0
-64 65 -66 0
-67 -47 0
-67 32 0
47 -32 67 0
68 -52 0
68 -4 0
52 4 -68 0
68 2 -69 0
-68 -2 -69 0
68 -2 69 0
-68 2 69 0
7 -69 -70 0
-7 69 -70 0
7 69 70 0
-7 -69 70 0
71 -70 0
71 9 0
70 -9 -71 0
-71 -59 -72 0
71 59 -72 0
-71 59 72 0
71 -59 72 0
73 67 0
73 -72 0
-67 72 -73 0
-74 -66 0
-74 73 0
66 -73 74 0
6 29 -75 0
-6 -29 -75 0
6 -29 75 0
-6 29 75 0
-76 74 0
-76 75 0
-74 -75 76 0
77 -63 0
77 -76 0
63 76 -77 0
78 -46 0
78 -77 0
46 77 -78 0
75 -63 -66 -51 0
-73 44 19 52 -42 6 0
62 -43 75 8 -69 0
-46 -61 0
16 43 -9 7 39 0
69 -9 60 40 46 0
-71 44 -74 22 0
50 -30 6 -3 -58 42 0
40 -11 -35 0
-47 -78 -49 -20 21 -59 0
42 61 31 0
-43 21 -34 0
-47 -66 30 65 0
41 11 63 -31 -19 0
39 -73 -13 14 0
-8 75 4 -66 0
21 2 3 -41 29 0
49 76 -6 0
28 60 -65 -36 0
7 -51 -39 57 15 0
-43 56 20 -68 32 0
14 -63 46 66 8 0
8 -73 -47 64 44 45 0
-39 28 -2 -7 5 0
-48 4 0
-4 -10 5 -18 0
-72 -6 1 0
-20 50 4 39 0
6 71 -37 0
75 -26 72 17 67 0
14 43 -30 -3 0
-72 -3 -63 0
-38 39 -35 -57 33 0
-15 -22 0
-77 22 0
-73 25 44 64 -1 0
-49 -38 0
17 26 78 -64 -37 0
-26 11 22 -21 -76 0
-69 49 32 -1 -74 -71 0
4 -58 -10 55 30 0
50 72 0
-3 64 42 -27 41 -47 0
74 -52 -55 0
-39 -63 -58 0
-62 5 -39 0
55 -37 -6 -19 0
8 -50 45 -26 0
31 -44 0
-16 77 56 -45 -28 63 0
-70 75 -17 63 -44 78 0
-28 -9 0
-18 -45 -43 70 -44 64 0
-54 -39 2 -22 12 0
-50 -22 20 7 0
-11 2 -62 -68 0
-57 -5 34 22 0
-72 -57 0
72 15 55 0
-2 -74 -38 49 -34 72 0
-75 2 -19 48 -71 0
-40 -41 24 -76 0
-67 17 49 6 0
71 -15 -73 -1 36 -11 0
-57 42 -16 44 -12 -3 0
2 62 -71 0
78 0
